Maximize

5 sel_0 + 4 sel_1 + 3 sel_2 + 4 sel_3 + 5 sel_4 + 2 sel_5 + 3 sel_6


Subject To

a0: sel_0 + sel_1 - 1 >= 0
a1: sel_2 + sel_3 - 1 >= 0
a2: sel_4 - 1 >= 0
a3: sel_5 + sel_6 - 1 >= 0
b0: sel_0 + sel_1 - sel_2 - sel_3 - sel_4 - sel_5 - sel_6 >= 0
c0: 20 sel_0 + 25 sel_1 + 22 sel_2 + 20 sel_3 + 18 sel_4 + 18 sel_5 + 26 sel_6 - 20 sel_0 - 20 sel_1 - 20 sel_2 - 20 sel_3 - 20 sel_4 - 20 sel_5 - 20 sel_6 >= 0
d0: 90 sel_0 + 110 sel_1 + 80 sel_2 + 70 sel_3 + 120 sel_4 + 100 sel_5 + 90 sel_6 - 500 <= 0




Binary

sel_0 sel_1 sel_2 sel_3 sel_4 sel_5 sel_6

 


End
